20
95.43
0 19 45.57 5.68
1 18 38.71 11.47
2 17 38.95 6.86
3 16 43.14 7.83
4 15 40.59 6.76
5 14 42.8 6.8
6 13 42.7 7.23
7 12 44.08 5.54
8 11 40.19 7.28
9 10 48.24 9.09
10 9 36.12 7.9
11 8 37.44 9.84
12 7 44.34 4.6
13 6 41.91 9.37
14 5 38.37 8.13
15 4 36.13 8.51
16 3 56.85 11.64
17 2 37.88 10.21
18 1 35.08 10.48
